Maximize

60.0 x_0 + 25.0 x_1 + 5.0 x_2 + 25.0 x_3 + 15.0 x_4 + 100.0 x_5


Subject To

a0: 0.5 x_0 + 0.0 x_1 + 0.0 x_2 + 0.0 x_3 + 0.0 x_4 + 0.2 x_5 <= 35
a1: 0.0 x_0 + 1.0 x_1 + 0.4 x_2 + 0.0 x_3 + 0.0 x_4 + 0.0 x_5 <= 4
a2: 0.4 x_0 + 0.0 x_1 + 0.0 x_2 + 0.0 x_3 + 0.4 x_4 + 0.0 x_5 <= 12
a3: 0.0 x_0 + 0.0 x_1 + 0.0 x_2 + 0.0 x_3 + 0.0 x_4 + 0.0 x_5 <= 5
a4: 0.0 x_0 + 0.0 x_1 + 0.0 x_2 + 0.0 x_3 + 0.0 x_4 + 0.3 x_5 <= 30
a5: 0.0 x_0 + 0.0 x_1 + 0.0 x_2 + 0.8 x_3 + 0.0 x_4 + 0.3 x_5 <= 42
a6: 0.1 x_0 + 0.0 x_1 + 0.8 x_2 + 0.0 x_3 + 0.0 x_4 + 0.0 x_5 <= 3
a7: 0.0 x_0 + 0.0 x_1 + 0.0 x_2 + 0.0 x_3 + 0.6 x_4 + 0.0 x_5 <= 2
a8: 0.0 x_0 + 0.0 x_1 + 0.0 x_2 + 0.0 x_3 + 0.0 x_4 + 0.2 x_5 <= 20
a9: 0.0 x_0 + 0.0 x_1 + 0.0 x_2 + 0.2 x_3 + 0.0 x_4 + 0.0 x_5 <= 3



Bounds


x_0 <= 70.0
x_0 <= Infinity
x_0 <= 87.5
x_0 <= Infinity
x_0 <= Infinity
x_0 <= Infinity
x_0 <= 350.0
x_0 <= Infinity
x_0 <= Infinity
x_0 <= Infinity
x_1 <= Infinity
x_1 <= 4.0
x_1 <= Infinity
x_1 <= Infinity
x_1 <= Infinity
x_1 <= Infinity
x_1 <= Infinity
x_1 <= Infinity
x_1 <= Infinity
x_1 <= Infinity
x_2 <= Infinity
x_2 <= 30.0
x_2 <= Infinity
x_2 <= Infinity
x_2 <= Infinity
x_2 <= Infinity
x_2 <= 15.0
x_2 <= Infinity
x_2 <= Infinity
x_2 <= Infinity
x_3 <= Infinity
x_3 <= Infinity
x_3 <= Infinity
x_3 <= Infinity
x_3 <= Infinity
x_3 <= 6.25
x_3 <= Infinity
x_3 <= Infinity
x_3 <= Infinity
x_3 <= 25.0
x_4 <= Infinity
x_4 <= Infinity
x_4 <= 75.0
x_4 <= Infinity
x_4 <= Infinity
x_4 <= Infinity
x_4 <= Infinity
x_4 <= 50.0
x_4 <= Infinity
x_4 <= Infinity
x_5 <= 210.0
x_5 <= Infinity
x_5 <= Infinity
x_5 <= Infinity
x_5 <= 140.0
x_5 <= 140.0
x_5 <= Infinity
x_5 <= Infinity
x_5 <= 210.0
x_5 <= Infinity




General

 x_0 x_1 x_2 x_3 x_4 x_5



End
